Normalized Data/p04_4_normalized_split0.vrp
NAME:p04_4_NORMALIZED_split
BEST_KNOWN: 0
COMMENT: 0
DIMENSION: 642
CAPACITY: 100
EDGE_WEIGHT_FORMAT: FUNCTION
EDGE_WEIGHT_TYPE: EXACT_2D
NODE_COORD_SECTION
1 0.00000 0.00000
2 35 -38
3 35 -38
4 35 14
5 35 14
6 35 14
7 35 14
8 35 14
9 9 -32
10 9 -32
11 9 -32
12 -46 42
13 -46 42
14 -46 42
15 -5 33
16 -45 15
17 -45 15
18 -45 15
19 -45 15
20 -45 15
21 -45 15
22 17 -18
23 17 -18
24 17 -18
25 17 -18
26 17 -18
27 14 -12
28 14 -12
29 36 -32
30 36 -32
31 36 -32
32 -50 -31
33 -50 -31
34 -50 -31
35 -50 -31
36 -27 8
37 -27 8
38 -27 8
39 -27 8
40 -27 8
41 -27 8
42 -43 -25
43 -43 -25
44 -43 -25
45 45 -9
46 45 -9
47 45 -9
48 45 -9
49 37 -39
50 -10 25
51 -10 25
52 48 41
53 48 41
54 48 41
55 48 41
56 48 41
57 48 41
58 -29 13
59 -29 13
60 -29 13
61 -29 13
62 -31 -24
63 -3 9
64 -3 9
65 -3 9
66 -3 9
67 -3 9
68 -36 -46
69 -36 -46
70 -36 -46
71 32 30
72 32 30
73 32 30
74 -24 -46
75 -24 -46
76 -24 -46
77 -24 -46
78 -24 -46
79 -24 -46
80 15 34
81 15 34
82 15 34
83 15 34
84 15 34
85 15 34
86 15 34
87 44 10
88 44 10
89 -6 -2
90 -6 -2
91 -6 -2
92 12 -12
93 12 -12
94 12 -12
95 12 -12
96 12 -12
97 12 -12
98 2 -1
99 2 -1
100 2 -1
101 2 -1
102 2 -1
103 32 -3
104 32 -3
105 32 -3
106 32 -3
107 -2 5
108 -2 5
109 -2 5
110 -2 5
111 -2 5
112 -2 5
113 18 -25
114 32 30
115 32 30
116 32 30
117 32 30
118 32 30
119 32 30
120 4 32
121 4 32
122 4 32
123 4 32
124 4 32
125 4 32
126 31 7
127 31 7
128 31 7
129 31 7
130 31 7
131 31 1
132 31 1
133 31 1
134 31 1
135 31 1
136 31 1
137 -1 -30
138 -1 -30
139 -1 -30
140 -1 -30
141 -1 -30
142 -1 -30
143 47 -35
144 47 -35
145 47 -35
146 47 -35
147 47 -35
148 47 -35
149 44 15
150 44 15
151 44 15
152 44 15
153 44 15
154 -32 -17
155 -32 -17
156 -32 -17
157 -32 -17
158 -32 -17
159 -32 -17
160 27 49
161 27 49
162 27 49
163 27 49
164 27 49
165 27 -49
166 27 -49
167 -45 -18
168 -45 -18
169 -45 -18
170 -45 -18
171 44 0
172 44 0
173 44 0
174 31 48
175 31 48
176 31 48
177 31 48
178 31 48
179 31 48
180 0 26
181 0 26
182 6 -24
183 6 -24
184 6 -24
185 -44 30
186 -44 30
187 -44 30
188 -44 30
189 -44 30
190 -7 8
191 -7 8
192 -29 27
193 -29 27
194 -29 27
195 14 -13
196 14 -13
197 14 -13
198 14 -13
199 14 -13
200 14 -13
201 15 26
202 15 26
203 15 26
204 15 26
205 15 26
206 15 26
207 15 26
208 -4 -44
209 -4 -44
210 -4 -44
211 -4 -44
212 -4 -44
213 45 22
214 45 22
215 45 22
216 43 4
217 39 -37
218 39 -37
219 39 -37
220 -46 37
221 -46 37
222 -46 37
223 -46 37
224 -46 37
225 -48 -26
226 -48 -26
227 4 18
228 4 18
229 4 18
230 28 -27
231 28 -27
232 28 -27
233 28 -27
234 50 -15
235 50 -15
236 50 -15
237 40 -24
238 40 -24
239 40 -24
240 40 -24
241 40 -24
242 40 -24
243 40 -24
244 -18 37
245 -18 37
246 -18 37
247 -18 37
248 -18 37
249 -18 37
250 -38 18
251 -38 18
252 -38 18
253 -38 18
254 -38 18
255 -38 18
256 40 10
257 40 10
258 40 10
259 40 10
260 13 47
261 13 47
262 13 47
263 13 47
264 13 47
265 13 47
266 13 47
267 -18 -47
268 -18 -47
269 -36 47
270 -36 47
271 9 -20
272 9 -20
273 9 -20
274 9 -20
275 9 -20
276 9 -20
277 9 -20
278 -29 -6
279 -29 -6
280 -29 -6
281 -29 -6
282 -14 -19
283 -14 -19
284 -14 -19
285 -14 -19
286 -14 -19
287 -36 -26
288 -36 -26
289 -36 -26
290 -36 -26
291 -36 -26
292 -36 -26
293 -7 46
294 -7 46
295 13 17
296 13 17
297 13 17
298 13 17
299 0 -28
300 0 -28
301 0 -28
302 0 -28
303 0 -28
304 0 -28
305 32 18
306 32 18
307 32 18
308 32 18
309 32 18
310 -41 3
311 -41 3
312 -41 3
313 34 -12
314 34 -12
315 34 -12
316 34 -12
317 24 13
318 24 13
319 24 13
320 -1 -1
321 -1 -1
322 -1 -1
323 -1 -1
324 -1 -1
325 -1 -1
326 -1 -1
327 -43 -34
328 -43 -34
329 -43 -34
330 -43 -34
331 -43 -34
332 -43 -34
333 16 28
334 16 28
335 16 28
336 16 28
337 24 -48
338 24 -48
339 24 -48
340 30 41
341 30 41
342 -10 -9
343 -10 -9
344 -10 -9
345 -10 -9
346 -32 8
347 -32 8
348 -32 8
349 -32 8
350 -32 8
351 -45 -11
352 -45 -11
353 -45 -11
354 -45 -11
355 -45 -11
356 -45 -11
357 37 6
358 15 -44
359 15 -44
360 15 -44
361 15 -44
362 -12 37
363 -12 37
364 -12 37
365 -12 37
366 -29 -25
367 -29 -25
368 -29 -25
369 -29 -25
370 -40 -17
371 -40 -17
372 -40 -17
373 -40 -17
374 -40 -17
375 -33 -20
376 -33 -20
377 -33 -20
378 -33 -20
379 -33 -20
380 -33 -20
381 0 -5
382 0 -5
383 0 -5
384 0 -5
385 -13 -48
386 -13 -48
387 -13 -48
388 -13 -48
389 -13 -48
390 -28 20
391 -28 20
392 -28 20
393 -6 -17
394 -6 -17
395 -6 -17
396 -6 -17
397 -6 -17
398 -6 -17
399 -6 -17
400 -18 3
401 -18 3
402 -18 3
403 -23 -30
404 -23 -30
405 -23 -30
406 -23 -30
407 -23 -30
408 14 46
409 14 46
410 14 46
411 14 46
412 14 46
413 17 -8
414 17 -8
415 17 -8
416 17 -8
417 41 -5
418 -42 31
419 -42 31
420 -42 31
421 -42 31
422 -42 31
423 -42 31
424 -40 13
425 -40 13
426 -40 13
427 -40 13
428 -40 13
429 -30 32
430 -30 32
431 -30 32
432 -30 32
433 -45 -15
434 -45 -15
435 -45 -15
436 -45 -15
437 -45 -15
438 -45 -15
439 5 46
440 5 46
441 5 46
442 26 -43
443 26 -43
444 26 -43
445 39 45
446 39 45
447 39 45
448 39 45
449 39 45
450 37 48
451 37 48
452 37 48
453 29 41
454 29 41
455 29 41
456 29 41
457 29 41
458 29 41
459 43 -48
460 43 -48
461 43 -48
462 43 -48
463 -2 40
464 -2 40
465 -2 40
466 -2 40
467 -2 40
468 -2 40
469 -2 40
470 12 44
471 12 44
472 12 44
473 12 44
474 12 44
475 -16 13
476 -16 13
477 -16 13
478 -16 13
479 -16 13
480 -50 -24
481 -50 -24
482 -50 -24
483 -50 -24
484 -50 -24
485 -50 -24
486 -50 -24
487 31 -39
488 31 -39
489 31 -39
490 31 -39
491 35 8
492 -5 -29
493 -5 -29
494 -5 -29
495 -7 -26
496 -7 -26
497 -7 -26
498 -7 -26
499 -7 -26
500 -7 -26
501 12 -46
502 12 -46
503 12 -46
504 12 -46
505 -1 -36
506 -1 -36
507 -1 -36
508 -1 -36
509 -1 -36
510 -24 -50
511 -24 -50
512 -24 -50
513 -15 46
514 -15 46
515 -17 26
516 -17 26
517 -17 26
518 -17 26
519 -17 26
520 -17 26
521 -17 26
522 -39 -21
523 -39 -21
524 -39 -21
525 -39 -21
526 -39 -21
527 -26 49
528 -26 49
529 -26 49
530 -26 49
531 -26 49
532 -30 8
533 -30 8
534 -30 8
535 24 36
536 24 36
537 24 36
538 24 36
539 24 36
540 21 10
541 21 10
542 21 10
543 33 -10
544 33 -10
545 33 -10
546 4 24
547 4 24
548 4 24
549 28 -27
550 28 -27
551 28 -27
552 28 -27
553 28 -27
554 28 -27
555 9 29
556 9 29
557 9 29
558 9 29
559 9 29
560 40 -41
561 40 -41
562 40 -41
563 40 -41
564 40 -41
565 40 -41
566 40 -41
567 16 23
568 16 23
569 16 23
570 16 23
571 -34 -26
572 -34 -26
573 -34 -26
574 -34 -26
575 -34 -26
576 -22 -26
577 -22 -26
578 -36 47
579 -36 47
580 -36 47
581 -36 47
582 -36 47
583 -36 47
584 -36 47
585 17 -45
586 17 -45
587 17 -45
588 17 -45
589 17 -45
590 17 -45
591 17 -45
592 -37 40
593 -37 40
594 46 -46
595 46 -46
596 46 -46
597 46 -46
598 46 -46
599 40 -20
600 40 -20
601 40 -20
602 40 -20
603 -14 -2
604 -14 -2
605 -14 -2
606 -14 -2
607 -50 37
608 -50 37
609 -50 37
610 -50 37
611 -50 37
612 -50 37
613 -50 37
614 -28 -18
615 -28 -18
616 -28 -18
617 -28 -18
618 -28 -18
619 -28 -18
620 -41 18
621 -41 18
622 -41 18
623 -41 18
624 -41 18
625 -29 -25
626 -29 -25
627 13 -1
628 13 -1
629 27 -17
630 27 -17
631 27 -17
632 -37 -46
633 -37 -46
634 -37 -46
635 -37 -46
636 -37 -46
637 38 32
638 38 32
639 38 32
640 38 32
641 38 32
642 38 32
DEMAND_SECTION
1 0
2 10
3 5
4 20
5 5
6 1
7 1
8 1
9 10
10 5
11 1
12 20
13 20
14 5
15 20
16 20
17 20
18 1
19 1
20 1
21 1
22 20
23 20
24 5
25 1
26 1
27 20
28 10
29 20
30 1
31 1
32 20
33 5
34 1
35 1
36 20
37 20
38 1
39 1
40 1
41 1
42 20
43 20
44 10
45 20
46 20
47 5
48 1
49 20
50 10
51 5
52 10
53 5
54 1
55 1
56 1
57 1
58 10
59 1
60 1
61 1
62 20
63 10
64 1
65 1
66 1
67 1
68 20
69 10
70 5
71 10
72 5
73 1
74 20
75 10
76 1
77 1
78 1
79 1
80 20
81 20
82 5
83 1
84 1
85 1
86 1
87 20
88 5
89 20
90 5
91 1
92 20
93 10
94 1
95 1
96 1
97 1
98 20
99 10
100 1
101 1
102 1
103 20
104 1
105 1
106 1
107 20
108 10
109 1
110 1
111 1
112 1
113 20
114 20
115 20
116 1
117 1
118 1
119 1
120 20
121 10
122 5
123 1
124 1
125 1
126 20
127 1
128 1
129 1
130 1
131 20
132 10
133 5
134 1
135 1
136 1
137 20
138 20
139 1
140 1
141 1
142 1
143 20
144 10
145 5
146 1
147 1
148 1
149 20
150 5
151 1
152 1
153 1
154 20
155 10
156 1
157 1
158 1
159 1
160 20
161 20
162 1
163 1
164 1
165 20
166 1
167 10
168 5
169 1
170 1
171 20
172 1
173 1
174 20
175 20
176 1
177 1
178 1
179 1
180 20
181 1
182 20
183 10
184 5
185 20
186 10
187 5
188 1
189 1
190 20
191 20
192 20
193 20
194 1
195 20
196 20
197 1
198 1
199 1
200 1
201 20
202 10
203 5
204 1
205 1
206 1
207 1
208 10
209 1
210 1
211 1
212 1
213 20
214 20
215 10
216 20
217 20
218 1
219 1
220 20
221 10
222 1
223 1
224 1
225 20
226 5
227 20
228 20
229 5
230 20
231 20
232 1
233 1
234 20
235 1
236 1
237 20
238 20
239 5
240 1
241 1
242 1
243 1
244 20
245 20
246 5
247 1
248 1
249 1
250 20
251 10
252 5
253 1
254 1
255 1
256 20
257 10
258 5
259 1
260 20
261 20
262 5
263 1
264 1
265 1
266 1
267 20
268 10
269 10
270 5
271 20
272 10
273 5
274 1
275 1
276 1
277 1
278 20
279 10
280 1
281 1
282 20
283 5
284 1
285 1
286 1
287 20
288 10
289 5
290 1
291 1
292 1
293 20
294 10
295 20
296 10
297 5
298 1
299 20
300 20
301 5
302 1
303 1
304 1
305 10
306 5
307 1
308 1
309 1
310 10
311 5
312 1
313 20
314 20
315 1
316 1
317 20
318 5
319 1
320 20
321 10
322 5
323 1
324 1
325 1
326 1
327 20
328 10
329 5
330 1
331 1
332 1
333 20
334 20
335 1
336 1
337 10
338 5
339 1
340 10
341 5
342 10
343 5
344 1
345 1
346 20
347 20
348 1
349 1
350 1
351 20
352 20
353 1
354 1
355 1
356 1
357 20
358 20
359 20
360 1
361 1
362 20
363 20
364 1
365 1
366 20
367 20
368 5
369 1
370 20
371 1
372 1
373 1
374 1
375 20
376 10
377 5
378 1
379 1
380 1
381 20
382 5
383 1
384 1
385 20
386 20
387 1
388 1
389 1
390 20
391 1
392 1
393 20
394 10
395 5
396 1
397 1
398 1
399 1
400 20
401 10
402 1
403 20
404 10
405 5
406 1
407 1
408 10
409 1
410 1
411 1
412 1
413 20
414 1
415 1
416 1
417 20
418 20
419 10
420 1
421 1
422 1
423 1
424 20
425 10
426 1
427 1
428 1
429 10
430 1
431 1
432 1
433 20
434 10
435 1
436 1
437 1
438 1
439 20
440 20
441 1
442 20
443 5
444 1
445 20
446 20
447 5
448 1
449 1
450 20
451 5
452 1
453 20
454 20
455 1
456 1
457 1
458 1
459 20
460 10
461 1
462 1
463 20
464 20
465 5
466 1
467 1
468 1
469 1
470 20
471 5
472 1
473 1
474 1
475 20
476 20
477 1
478 1
479 1
480 20
481 20
482 5
483 1
484 1
485 1
486 1
487 20
488 10
489 5
490 1
491 20
492 20
493 5
494 1
495 20
496 10
497 1
498 1
499 1
500 1
501 10
502 5
503 1
504 1
505 20
506 5
507 1
508 1
509 1
510 20
511 10
512 1
513 10
514 5
515 20
516 10
517 5
518 1
519 1
520 1
521 1
522 20
523 10
524 5
525 1
526 1
527 10
528 1
529 1
530 1
531 1
532 20
533 20
534 10
535 20
536 10
537 5
538 1
539 1
540 20
541 20
542 5
543 10
544 1
545 1
546 10
547 5
548 1
549 20
550 5
551 1
552 1
553 1
554 1
555 20
556 20
557 1
558 1
559 1
560 20
561 10
562 5
563 1
564 1
565 1
566 1
567 20
568 1
569 1
570 1
571 10
572 1
573 1
574 1
575 1
576 10
577 5
578 20
579 20
580 5
581 1
582 1
583 1
584 1
585 20
586 20
587 5
588 1
589 1
590 1
591 1
592 20
593 1
594 20
595 20
596 5
597 1
598 1
599 20
600 10
601 1
602 1
603 20
604 10
605 1
606 1
607 20
608 20
609 5
610 1
611 1
612 1
613 1
614 20
615 10
616 5
617 1
618 1
619 1
620 10
621 1
622 1
623 1
624 1
625 20
626 5
627 20
628 10
629 20
630 20
631 1
632 10
633 1
634 1
635 1
636 1
637 20
638 20
639 5
640 1
641 1
642 1
DEPOT_SECTION
1
-1
EOF