Normalized Data/p04_4_normalized_split0.sol
641 -13 12 11 220 219 221 420 419 421 417 -14 439 438 440 124 120 123 119 121 122 -21 628 629 313 312 -24 22 25 23 550 231 552 232 549 229 230 548 553 551 -27 26 198 270 273 274 276 272 275 182 183 181 381 -30 29 28 2 1 486 489 487 488 112 321 325 -40 39 531 533 532 345 349 346 347 348 89 -41 32 31 34 33 329 326 330 328 331 327 571 573 570 572 574 -48 595 594 593 597 596 460 461 458 459 -49 362 364 363 361 245 244 246 243 248 247 -71 118 115 117 52 51 56 53 55 54 448 444 446 447 445 450 449 451 -72 636 639 637 638 640 641 213 212 214 318 -73 511 509 510 68 67 69 633 635 631 634 632 -81 85 82 84 409 408 410 411 407 265 263 264 260 262 261 259 470 471 472 473 469 -83 80 79 536 535 537 534 538 333 335 334 -88 90 344 343 341 342 604 602 603 400 399 401 -95 96 92 93 91 94 196 199 194 195 197 413 412 415 414 -97 380 320 319 106 107 -98 235 234 233 45 46 47 44 416 103 104 -100 99 101 236 238 237 240 239 241 242 601 600 599 598 315 314 542 544 543 -105 102 170 171 172 215 255 256 257 258 128 -108 109 110 64 63 515 514 516 518 520 517 519 430 431 428 429 193 192 191 477 476 -111 50 512 513 293 292 462 464 467 463 465 468 466 -116 114 113 70 340 454 457 452 456 455 453 -125 129 126 490 356 130 134 133 132 135 131 -127 87 86 149 148 151 152 150 4 6 3 7 5 304 305 306 308 307 -154 153 158 155 375 374 376 378 377 379 614 613 -156 157 523 225 224 480 481 485 482 483 479 484 166 169 167 168 372 371 -160 159 163 162 161 175 177 173 174 176 178 339 -179 180 545 547 546 558 557 554 556 555 294 -187 186 184 185 188 608 606 612 611 610 607 609 223 222 418 422 -190 189 62 66 65 226 227 228 -206 203 202 201 205 204 200 332 567 566 568 569 295 297 296 -216 217 218 564 561 560 565 562 563 559 147 146 145 144 143 142 630 -250 623 622 619 621 620 15 19 18 16 17 20 277 280 279 278 -271 590 589 584 586 585 588 357 358 360 359 -282 281 284 283 576 575 402 403 404 406 405 395 392 -285 75 77 74 78 76 267 266 384 386 385 387 388 498 497 496 499 394 396 397 398 -288 286 290 289 287 291 42 43 521 524 522 525 -299 300 298 302 141 136 139 140 137 138 393 -303 301 504 506 505 507 508 209 208 210 207 211 492 491 493 495 494 -317 316 539 541 540 626 627 -323 322 324 35 38 36 37 60 59 57 58 474 478 475 -351 350 352 353 354 355 432 433 435 434 437 436 369 373 370 -368 365 625 624 366 367 61 615 618 616 617 -383 382 8 10 9 500 501 503 502 587 338 337 336 165 164 443 441 442 -391 390 389 253 249 252 254 251 427 426 425 424 423 310 311 309 605 -526 528 527 529 530 269 578 580 579 581 582 577 268 583 592 591 0 





OBJ=
4463.392
BEST_KNOWN=
0.000